c A SAT instance generated from a 3-CNF formula that had 12 clauses and 6 variables
p cnf 6 12
-4 -6 5 0
2 4 -5 0
3 4 2 0
-1 2 -4 0
-5 6 3 0
4 -5 -6 0
-6 5 -2 0
6 3 2 0
1 3 5 0
1 6 -3 0
-3 4 -2 0
-5 1 2 0
